Li on Fe
1.0
5.020000 0.000000 0.000000
0.000000 5.020000 0.000000
0.000000 0.000000 5.020000
Li O
1 2
Direct
0.000000 0.000000 0.000000
0.500000 0.500000 0.000000
0.500000 0.000000 0.500000
