&CONTROL
  calculation = 'relax',
  prefix = 'defect',
  pseudo_dir = './pseudo',
  outdir = './tmp',
/
&SYSTEM
  ibrav = 0,
  nat = 2,
  ntyp = 2,
  ecutwfc = 60.0,
  ecutrho = 480.0,
  occupations = 'fixed',
/
&ELECTRONS
  conv_thr = 1.0d-8,
/
ATOMIC_SPECIES
Fe 55.845 Fe.UPF
O  15.999 O.UPF

CELL_PARAMETERS angstrom
5.05 0.00 0.00
0.00 5.05 0.00
0.00 0.00 5.05

ATOMIC_POSITIONS crystal
Fe 0.00 0.00 0.00
O  0.50 0.50 0.00

K_POINTS automatic
6 6 6 0 0 0
