O vacancy
1.0
5.050000 0.000000 0.000000
0.000000 5.050000 0.000000
0.000000 0.000000 5.050000
Fe O
1 1
Direct
0.000000 0.000000 0.000000
0.500000 0.500000 0.000000
